001102-2
001104-0
001105-0
001106-2
001114-2
001116-2
001119-2
001126-0
001126-2
001131-0
001132-2
001135-0
001142-2
001143-0
001145-0
001146-0
001151-2
001152-0
001154-0
001165-0
001165-2
001174-0
001177-0
001180-0
001181-0
001184-2
001188-0
001193-0
001193-2
001196-0
001201-0
001204-0
001205-0
001205-2
001207-0
001207-2
001209-0
001209-2
001210-0
001214-0
001217-0
001218-0
001223-0
001223-2
001227-0
001229-0
001239-0
001241-0
001242-0
001242-2
001244-0
001244-2
001250-0
001252-0
001257-0
001273-0
001281-0
001281-2
001283-2
001286-0
001287-0
001290-0
001290-2
001293-2
001295-0
001295-2
001502-0
001506-0
001507-0
001509-0
001516-0
001518-0
001519-0
001522-0
001523-0
001528-0
001532-0
001533-0
001534-0
001538-0
001539-0
001540-0
001541-0
001543-0
001544-0
001546-0
001548-0
001550-0
001553-0
001559-0
001560-0
001561-0
001562-0
001564-0
001566-0
001567-0
001568-0
001569-0
001572-0
001574-0
001575-2
001579-0
001581-0
001582-0
001585-0
001587-0
001589-0
001590-0
001599-0
001812-0
001813-0
001814-0
001816-0
001817-0
001818-0
001821-0
001823-0
001825-0
001827-0
001828-0
001829-0
001830-0
001832-0
001834-0
001837-0
001839-0
001842-0
001844-0
001848-0
001849-0
001850-0
001853-0
001857-0
001859-0
001860-0
001863-0
001864-0
001865-0
001866-0
001867-0
001868-0
001870-0
001871-0
001872-0
001875-0
001876-0
001879-0
001881-0
001882-0
001883-0
001889-0
001890-0
001892-0
001893-0
001894-0
001897-0
001902-0
001905-0
001907-0
001911-0
001913-0
001915-0
001918-0
001921-0
001923-0
001928-0
001929-0
001931-0
001934-0
001940-0
001943-0
001944-0
001947-0
001949-0
001953-0
001954-0
001955-0
001957-0
001959-0
001961-0
001962-0
001963-0
001967-0
001968-0
001969-0
001971-0
001973-0
001974-0
001978-0
001980-0
001982-0
001984-0
001985-0
001989-0
002001-0
002002-0
002006-0
002009-0
002012-0
002014-0
002016-0
002018-0
002019-0
002023-0
002024-0
002025-0
002027-0
002029-0
002030-0
002031-0
002032-0
002033-0
002036-0
002038-0
002039-0
002040-0
002042-0
002043-0
002045-0
002046-0
002047-0
002051-0
002052-0
002053-0
002055-0
002056-0
002059-0
002060-0
002062-0
002065-0
002067-0
002069-0
002070-0
002073-0
002075-0
002077-0
002078-0
002079-0
002082-0
002084-0
002085-0
002087-0
002091-0
002092-0
002097-0
002098-0
002099-0
002100-0
002102-0
002108-0
002109-0
002110-0
002114-0
002115-0
002116-0
002119-0
002122-0
002123-0
002124-0
002131-0
002133-0
002135-0
002137-0
002138-0
002140-0
002141-0
002144-0
002150-0
002151-0
002152-0
002155-0
002156-0
002157-0
002163-0
002164-0
002165-0
002166-0
002167-0
002168-0
002170-0
002172-0
002174-0
002175-0
002177-0
002178-0
002179-0
002180-0
002183-0
002185-0
002186-0
002187-0
002190-0
002191-0
002192-0
002193-0
002196-0
002197-0
002198-0
002201-0
002203-0
002205-0
002207-0
002208-0
002209-0
002210-0
002211-0
002212-0
002214-0
002215-0
002216-0
002219-0
002220-0
002221-0
002224-0
002225-0
002228-0
002231-0
002233-0
002234-0
002236-0
002237-0
002238-0
002241-0
002244-0
002245-0
002246-0
002255-0
002256-0
002257-0
002260-0
002261-0
002262-0
002263-0
002264-0
002266-0
002268-0
002269-2
002274-0
002276-0
002277-0
002278-0
002282-0
002283-0
002284-0
002285-0
002287-0
002288-0
002290-0
002291-0
002292-0
002293-0
002294-0
002296-0
002297-0
002298-0
002299-0
002303-0
002305-0
002306-0
002307-0
002308-0
002310-0
002312-0
002314-0
002315-0
002316-0
002321-0
002323-0
002324-0
002325-0
002331-0
002332-0
002333-0
002334-0
002337-0
002338-0
002340-0
002341-0
002342-0
002344-0
002345-0
002346-0
002347-0
002349-0
002351-0
002352-0
002353-0
002354-0
002355-0
002356-0
002360-0
002361-0
002362-0
002367-0
002368-0
002369-0
002380-0
002381-0
002383-0
002384-0
002385-0
002386-0
002387-0
002389-0
002391-0
002392-0
002393-0
002397-0
002398-0
002399-0
002400-0
002404-0
002437-0
002440-0
002440-2
002456-0
002457-0
002458-0
002461-0
002462-0
002463-0
002465-0
002466-0
002470-0
002471-0
002472-0
002473-0
002475-0
002478-0
002480-0
002481-0
002484-0
002489-0
002490-0
002492-0
002494-0
002495-0
002496-0
002498-0
002501-0
002502-0
002503-0
002505-0
002506-0
002510-0
002511-0
002514-0
002515-0
002516-0
002518-0
002519-0
002520-0
002524-2
002525-0
002528-0
002530-0
002532-0
002533-0
002534-0
002537-0
002538-0
002539-0
002541-0
002543-0
002544-0
002545-0
002546-0
002547-0
002548-0
002549-0
002550-0
002552-0
002554-0
002555-0
002556-0
002557-0
002558-0
002563-0
002565-0
002566-0
002567-0
002569-0
002571-0
002573-0
002574-0
002575-0
002576-0
002578-0
002579-0
002581-0
002583-0
002584-0
002585-0
002587-0
002588-0
002590-0
002591-0
002592-0
002593-0
002594-0
002595-0
002596-0
002597-0
002598-0
002601-0
002602-0
002607-0
002608-0
002610-0
002611-0
002612-0
002613-0
002615-0
002616-0
002617-0
002619-0
002620-0
002621-0
002623-0
002629-0
002630-0
002631-0
002632-0
002633-0
002634-0
002637-0
002637-2
002638-0
002639-0
002640-0
002641-0
002642-0
002645-0
002646-0
002647-0
002650-0
002654-0
002655-0
002656-0
002657-0
002658-0
002659-0
002660-0
002661-0
002662-0
002663-0
002664-0
002665-0
002666-0
002667-0
002668-0
002670-0
002672-0
002673-0
002674-0
002675-0
002676-0
002677-0
002679-0
002680-0
002683-0
002684-0
002685-0
002686-0
002687-0
002689-0
002690-0
002691-0
002692-0
002693-0
002698-0
002699-0
002702-0
002703-0
002704-0
002706-0
002707-0
002708-0
002710-0
002711-0
002712-0
002713-0
002715-0
002716-0
002719-0
002720-0
002721-0
002722-0
002723-0
002724-0
002725-0
002726-0
002727-0
002728-0
002730-0
002731-0
002732-0
002735-0
002736-0
002737-0
002739-0
002741-0
002742-0
002743-0
002744-0
002745-0
002749-0
002750-0
002752-0
002753-0
002754-0
002755-0
002756-0
002758-0
002759-0
002760-0
002766-0
002768-0
002770-0
002771-0
002773-0
002774-0
002777-0
002778-0
002779-0
002781-0
002782-0
002783-0
002786-0
002787-0
002788-0
002789-0
002791-0
002792-0
002793-0
002794-0
002795-0
002797-0
002798-0
002799-0
002800-0
002803-0
002804-0
002805-0
002806-0
002807-0
002809-0
002812-0
002813-0
002816-0
002818-0
002819-0
002821-0
002823-0
002825-0
002826-0
002827-0
002828-0
002832-0
002833-0
002835-0
002837-0
002838-0
002842-0
002844-0
002851-0
002854-0
002855-0
002856-0
002860-0
002861-0
002862-0
002865-0
002866-0
002868-0
002870-0
002871-0
002872-0
002873-0
002874-0
002876-0
002877-0
002879-0
002881-0
002882-0
002883-0
002885-0
002890-0
002893-0
002894-0
002895-0
002896-2
002898-0
002900-0
002902-0
002904-0
002905-0
002906-0
002907-0
002911-0
002912-0
002913-0
002914-0
002915-0
002918-0
002919-0
002922-0
002923-0
002924-0
002925-0
002927-0
002929-0
002930-0
002931-0
002932-0
002933-0
002935-0
002937-0
002940-0
002941-0
002942-0
002943-0
002944-0
002946-2
002947-0
002948-0
002950-0
002951-0
002954-0
002956-0
002957-0
002958-0
002959-0
002960-0
002961-0
002962-0
002963-0
002966-0
002968-0
002969-0
002971-0
002972-0
002974-0
002975-0
002976-0
002977-0
002979-0
002980-0
002982-0
002983-0
002985-0
002986-0
002987-0
002989-0
002991-0
002992-0
002993-0
002995-0
002997-0
002998-0
003000-0
003001-0
003002-0
003003-0
003004-0
003005-0
003006-0
003007-0
003008-0
003014-0
003015-0
003016-0
003017-0
003018-0
003019-0
003020-0
003021-0
003022-0
003024-0
003025-0
003028-0
003036-0
003037-0
003038-0
003039-0
003040-0
003044-0
003045-0
003046-0
003047-0
003049-0
003050-0
003051-0
003052-0
003053-0
003055-0
003056-0
003057-0
003058-0
003059-0
003060-0
003061-0
003062-0
003063-0
003064-0
003065-0
003067-0
003068-0
003069-0
003075-0
003077-0
003079-0
003080-0
003082-0
003083-0
003084-0
003086-0
003087-0
003088-0
003089-0
003090-0
003091-0
003092-0
003093-0
003094-0
003095-0
003097-0
003098-0
003099-0
003101-0
003102-0
003103-0
003104-0
003105-0
003107-0
003108-0
003110-0
003111-0
003113-0
003115-0
003116-0
003117-0
003120-0
003121-0
003123-0
003124-0
003125-0
003126-0
003128-0
003129-0
003130-0
003132-0
003133-0
003134-0
003135-0
003136-0
003137-0
003139-0
003140-0
003141-0
003143-0
003148-0
003150-0
003151-2
003154-0
003156-0
003160-0
003161-0
003162-0
003163-0
003164-0
003166-0
003167-0
003170-0
003171-0
003172-0
003174-0
003175-0
003176-0
003177-0
003178-0
003181-0
003182-0
003183-0
003184-0
003185-0
003186-0
003190-0
003191-0
003192-0
003193-0
003194-0
003196-0
003197-0
003199-0
003201-0
003202-0
003203-0
003204-0
003206-0
003208-0
003209-0
003211-0
003214-0
003215-0
003216-0
003219-0
003222-0
003225-0
003226-0
003228-0
003230-0
003231-0
003233-0
003235-0
003238-0
003240-0
003241-0
003243-0
003244-0
003245-0
003248-0
003249-0
003250-0
003251-0
003252-0
003254-0
003255-0
003256-0
003258-0
003259-0
003260-0
003261-0
003262-0
003264-0
003265-0
003266-0
003267-0
003272-0
003273-0
003277-0
003278-0
003279-0
003280-2
003281-0
003283-0
003285-0
003286-0
003287-0
003288-0
003289-0
003292-0
003293-0
003294-0
003295-0
003296-0
003297-0
003298-0
003299-0
003301-0
003302-0
003303-0
003304-0
003305-0
003306-0
003308-0
003309-0
003311-0
003312-0
003313-0
003314-0
003316-0
003317-0
003318-0
003319-0
003320-0
003323-0
003324-0
003325-0
003326-0
003327-0
003329-0
003330-0
003331-0
003332-0
003333-0
003334-0
003335-0
003336-0
003337-0
003338-0
003339-0
003341-0
003342-0
003344-0
003345-0
003346-0
003347-0
003349-0
003350-0
003353-0
003354-0
003355-0
003356-0
003357-0
003359-0
003360-0
003361-2
003362-2
003363-2
003364-0
003369-2
003370-0
003375-0
003376-0
003379-0
003381-0
003382-0
003383-0
003385-0
003388-0
003390-0
003391-0
003394-0
003397-0
003398-0
003401-0
003402-0
003403-0
003404-0
003405-0
003406-0
003407-0
003408-0
003409-0
003412-0
003413-0
003414-0
003415-0
003416-0
003417-0
003419-0
003420-0
003421-0
003422-0
003423-0
003424-0
003425-0
003426-0
003427-0
003428-0
003429-0
003432-0
003433-0
003434-0
003435-0
003437-0
003439-0
003440-0
003441-0
003442-0
003443-0
003445-0
003446-0
003447-0
003448-0
003450-0
003452-0
003455-0
003456-0
003457-0
003458-0
003459-0
003461-0
003462-0
003463-0
003464-0
003466-0
003468-0
003469-0
003470-0
003471-0
003472-0
003474-0
003475-0
003477-0
003479-0
003480-0
003481-0
003482-0
003483-0
003485-0
003486-0
003487-0
003488-0
003489-0
003490-0
003492-0
003493-2
003495-2
003497-2
003501-0
003504-0
003505-0
003506-0
003507-0
003508-0
003509-0
003510-0
003511-0
003512-0
003513-0
003514-0
003515-0
003517-0
003519-0
003520-0
003521-0
003522-0
003523-0
003524-0
003529-0
003531-0
003532-0
003533-0
003534-0
003535-0
003536-0
003537-0
003538-0
003539-0
003540-0
003541-0
003542-0
003543-0
003544-0
003545-0
003546-0
003547-0
003548-0
003550-0
003552-0
003554-0
003556-0
003557-0
003558-0
003559-0
003560-0
003561-2
003563-0
003564-0
003566-0
003567-0
003568-0
003569-0
003570-0
003571-0
003572-0
003573-0
003574-0
003575-0
003576-0
003577-0
003578-0
003579-0
003580-0
003581-0
003582-0
003583-0
003584-0
003585-0
003586-0
003587-0
003588-0
003589-0
003591-0
003593-0
003594-0
003595-0
003596-0
003597-0
003598-0
003599-0
003601-0
003602-0
003603-0
003605-0
003606-0
003607-0
003608-0
003609-0
003610-0
003611-0
003612-0
003613-0
003614-0
003615-0
003616-0
003617-0
003619-0
003620-0
003621-0
003622-0
003623-0
003624-0
003625-0
003626-0
003627-0
003629-0
003630-0
003635-0
003636-0
003638-0
003640-0
003641-0
003642-0
003644-0
003645-0
003647-0
003648-0
003649-0
003650-0
003651-0
003652-0
003653-0
003654-0
003655-0
003656-0
003657-0
003658-0
003659-0
003661-0
003663-0
003664-0
003665-0
003666-0
003667-0
003668-0
003671-0
003672-0
003673-0
003674-0
003675-0
003676-0
003677-0
003678-0
003679-0
003680-0
003681-0
003682-0
003683-0
003686-0
003687-0
003689-0
003690-0
003691-0
003692-0
003695-0
003697-0
003698-0
003699-0
003700-0
003701-0
003702-0
003703-0
003704-0
003705-0
003706-0
003707-0
003708-0
003709-0
003711-0
003712-0
003713-0
003714-0
003715-0
003716-0
003717-0
003718-0
003719-0
003720-0
003721-0
003722-0
003723-0
003726-0
003727-0
003728-0
003729-0
003730-0
003733-0
003734-0
003736-0
003737-0
003738-0
003740-0
003741-0
003742-0
003743-0
003744-0
003745-0
003746-0
003749-0
003750-0
003751-0
003752-0
003753-0
003754-0
003755-0
003757-0
003758-0
003759-0
003761-0
003762-0
003763-0
003764-0
003765-0
003767-0
003768-0
003769-0
003770-0
003771-0
003772-0
003773-0
003774-0
003775-0
003776-0
003777-0
003778-0
003779-0
003781-0
003782-0
003783-0
003784-0
003785-0
003786-0
003787-0
003788-0
003789-0
003791-0
003792-0
003793-0
003795-0
003796-0
003797-0
003798-0
003799-0
003800-0
003801-0
003804-0
003805-0
003806-0
003807-0
003809-0
003810-0
003811-0
003812-0
003814-0
003815-0
003818-0
003819-0
003820-0
003821-0
003822-0
003823-0
003824-0
003825-0
003826-0
003827-0
003830-0
003831-0
003832-0
003833-0
003834-0
003835-0
003836-0
003837-0
003838-0
003839-0
003840-0
003841-0
003842-0
003843-0
003844-0
003846-0
003847-0
003849-0
003850-0
003851-0
003852-0
003853-0
003855-0
003856-0
003857-0
003858-0
003859-0
003860-0
003861-0
003862-0
003863-0
003865-0
003866-0
003867-0
003868-0
003869-0
003870-0
003871-0
003872-0
003873-0
003874-0
003875-0
003876-0
003877-0
003878-0
003879-0
003880-0
003882-0
003883-0
003884-0
003885-0
003886-0
003887-0
003888-0
003889-0
003890-0
003891-0
003892-0
003895-0
003896-0
003898-0
003899-0
003900-0
003901-0
003902-0
003904-0
003906-0
003907-0
003908-0
003909-0
003910-0
003911-0
003912-0
003913-0
003914-0
003915-0
003916-0
003917-0
003918-0
003919-0
003921-0
003923-0
003926-0
003927-0
003929-0
003930-0
003931-0
003932-0
003933-0
003934-0
003935-0
003936-0
003937-0
003938-0
003939-0
003940-0
003941-0
003942-0
003945-0
003948-0
003949-0
003950-0
003951-0
003954-0
003955-0
003957-0
003958-0
003959-0
003960-0
003961-0
003962-0
003963-0
003964-0
003966-0
003967-0
003970-0
003971-0
003972-0
003973-0
003974-0
003975-0
003976-0
003977-0
003978-0
003979-0
003980-0
003981-0
003982-0
003983-0
003984-0
003985-0
003987-0
003988-0
003989-0
003990-0
003991-0
003992-0
003993-0
003994-0
003995-0
003996-0
003997-0
003998-0
003999-0
004000-0
004001-0
004002-0
004003-0
004005-0
004006-0
004007-0
004008-0
004009-0
004010-0
004011-0
004012-0
004013-0
004014-0
004015-0
004016-0
004017-0
004018-0
004019-0
004020-0
004021-0
004023-0
004024-0
004026-0
004029-0
004030-0
004031-0
004032-0
004034-0
004035-0
004036-0
004037-0
004038-0
004039-0
004040-0
004041-0
004042-0
004044-0
004045-0
004047-0
004048-0
004049-0
004050-0
004051-0
004053-0
004054-0
004055-0
004056-0
004058-0
004059-0
004061-0
004062-0
004063-0
004064-0
004065-0
004066-0
004068-0
004069-0
004070-0
004073-0
004074-0
004075-0
004076-0
004078-0
004079-0
004080-0
004081-0
004082-0
004083-0
004084-0
004085-0
004086-0
004087-0
004089-0
004090-0
004091-0
004092-0
004094-0
004095-0
004097-0
004098-0
004100-0
004102-0
004103-0
004105-0
004107-0
004108-0
004109-2
004110-0
004112-0
004113-0
004114-0
004115-0
004116-0
004117-0
004118-0
004120-0
004121-0
004122-0
004124-0
004129-0
004130-0
004132-0
004133-0
004135-0
004136-0
004137-0
004138-0
004140-0
004141-0
004145-0
004147-0
004148-0
004149-0
004155-0
004157-0
004160-0
004162-0
004164-0
004166-0
004167-0
004168-0
004169-0
004170-0
004171-0
004174-0
004175-0
004178-0
004181-0
004183-0
004187-0
005000-0
005001-0
005002-0
005003-0
005004-0
005005-0
005006-0
005007-0
005008-0
005009-0
005010-0
005011-0
005012-0
005013-0
005014-0
005016-0
005017-0
005018-0
005019-0
005021-0
005022-0
005023-0
005024-0
005025-0
005026-0
005027-0
005028-0
005029-0
005030-0
005031-0
005032-0
005033-0
005034-0
005035-0
005036-0
005037-0
005038-0
005039-0
005040-0
005041-0
005043-0
005044-0
005045-0
005046-0
005047-0
005048-0
005049-0
005050-0
005051-0
005052-0
005053-0
005054-0
005055-0
005056-0
005057-0
005058-0
005059-0
005060-0
005061-0
005062-0
005063-0
005064-0
005065-0
005066-0
005067-0
005068-0
005069-0
005070-0
005071-0
005072-0
005073-0
005074-0
005075-0
005076-0
005078-0
005079-0
005080-0
005081-0
005082-0
005083-0
005084-0
005085-0
005086-0
005087-0
005088-0
005090-0
005091-0
005092-0
005093-0
005094-0
005096-0
005097-0
005098-0
005099-0
005100-0
005101-0
005102-0
005103-0
005104-0
005105-0
005106-0
005107-0
005108-0
005109-0
005111-0
005113-0
005114-0
005117-0
005118-0
005119-0
005120-0
005121-0
005122-0
005123-0
005124-0
005125-0
005126-0
005127-0
005128-0
005130-0
005131-0
005132-0
005133-0
005135-0
005136-0
005137-0
005138-0
005139-0
005140-0
005143-0
005144-0
005145-0
005146-0
005147-0
005148-0
005149-0
005151-0
005152-0
005153-0
005154-0
005155-0
005156-0
005157-0
005158-0
005159-0
005160-0
005161-0
005162-0
005163-0
005165-0
005167-0
005168-0
005173-0
005176-0
005177-0
005178-0
005179-0
005181-0
005182-0
005183-0
005184-0
005185-0
005187-0
005188-0
005190-0
005191-0
005192-0
005193-0
005194-0
005195-0
005196-0
005197-0
005198-0
005200-0
005201-0
005202-0
005203-0
005204-0
005205-0
005206-0
005207-0
005208-0
005210-0
005211-0
005212-0
005213-0
005214-0
005215-0
005218-0
005219-0
005220-0
005222-0
005223-0
005224-0
005225-0
005226-0
005227-0
005228-0
005231-0
005232-0
005233-0
005234-0
005235-0
005236-0
005237-0
005238-0
005240-0
005241-0
005242-0
005243-0
005245-0
005246-0
005248-0
005249-0
005250-0
005251-0
005252-0
005253-0
005254-0
005255-0
005256-0
005257-0
005258-0
005259-0
005262-0
005263-0
005264-0
005265-0
005266-0
005267-0
005268-0
005269-0
005270-0
005271-0
005272-0
005274-0
005275-0
005276-0
005277-0
005278-0
005279-0
005280-0
005281-0
005282-0
005283-0
005284-0
005285-0
005286-0
005287-0
005288-0
005290-0
005291-0
005292-0
005293-0
005295-0
005297-0
005298-0
005299-0
005300-0
005301-0
005302-0
005303-0
005304-0
005305-0
005306-0
005307-0
005308-0
005311-0
005312-0
005315-0
005316-0
005317-0
005318-0
005319-0
005320-0
005321-0
005322-0
005323-0
005324-0
005325-0
005326-0
005327-0
005328-0
005329-0
005330-0
005331-0
005333-0
005334-0
005335-0
005336-0
005337-0
005338-0
005339-0
005340-0
005341-0
005342-0
005343-0
005344-0
005345-0
005346-0
005347-0
005350-0
005351-0
005352-0
005353-0
005354-0
005355-0
005357-0
005358-0
005359-0
005360-0
005361-0
005362-0
005363-0
005364-0
005365-0
005366-0
005367-0
005368-0
005369-0
005370-0
005372-0
005373-0
005374-0
005375-0
005376-0
005378-0
005379-0
005380-0
005381-0
005382-0
005383-0
005384-0
005385-0
005386-0
005387-0
005388-0
005389-0
005390-0
005391-0
005392-0
005393-0
005394-0
005395-0
005396-0
005397-0
005398-0
005399-0
005400-0
005401-0
005402-0
005403-0
005404-0
005405-0
005406-0
005407-0
005409-0
005410-0
005411-0
005412-0
005413-0
005414-0
005416-0
005418-0
005419-0
005420-0
005421-0
005422-0
005423-0
005424-0
005426-0
005427-0
005428-0
005429-0
005430-0
005431-0
005432-0
005433-0
005434-0
005435-0
005436-0
005437-0
005438-0
005439-0
005440-0
005442-0
005443-0
005444-0
005445-0
005446-0
005448-0
005449-0
005450-0
005452-0
005453-0
005454-0
005455-0
005456-0
005457-0
005458-0
005459-0
005460-0
005461-0
005462-0
005464-0
005465-0
005466-0
005467-0
005468-0
005469-0
005470-0
005471-0
005472-0
005473-0
005474-0
005475-0
005476-0
005478-0
005479-0
005480-0
005481-0
005482-0
005483-0
005484-0
005485-0
005486-0
005487-0
005488-0
005489-0
005490-0
005491-0
005492-0
005493-0
005494-0
005495-0
005496-0
005498-0
005499-0
005500-0
005501-0
005502-0
005504-0
005505-0
005506-0
005507-0
005508-0
005509-0
005510-0
005511-0
005512-0
005513-0
005514-0
005515-0
005516-0
005517-0
005518-0
005519-0
005520-0
005521-0
005522-0
005523-0
005524-0
005525-0
005527-0
005528-0
005529-0
005531-0
005532-0
005533-0
005535-0
005536-0
005537-0
005538-0
005539-0
005540-0
005541-0
005542-0
005543-0
005544-0
005545-0
005547-0
005548-0
005549-0
005551-0
005552-0
005554-0
005555-0
005557-0
005558-0
005559-0
005562-0
005563-0
005564-0
005565-0
005566-0
005567-0
005568-0
005570-0
005571-0
005573-0
005575-0
005576-0
005577-0
005578-0
005579-0
005580-0
005581-0
005582-2
005583-0
005584-0
005585-0
005586-0
005587-0
005588-0
005589-0
005590-0
005591-0
005592-0
005593-0
005595-0
005596-0
005597-0
005598-0
005599-0
005601-0
005602-0
005603-0
005604-0
005605-0
005606-0
005607-0
005609-0
005610-0
005612-0
005613-0
005614-0
005615-0
005616-0
005617-0
005618-0
005620-0
005622-0
005623-0
005624-0
005625-0
005626-0
005627-0
005629-0
005630-0
005631-0
005632-0
005633-0
005634-0
005635-0
005636-0
005637-0
005638-0
005639-0
005640-0
005641-0
005642-0
005643-0
005644-0
005646-0
005647-0
005648-0
005649-0
005650-0
005653-0
005654-0
005656-0
005657-0
005658-0
005659-0
005660-0
005661-0
005663-0
005664-0
005665-0
005666-0
005667-0
005668-0
005669-0
005671-0
005672-0
005674-0
005676-0
005677-0
005678-0
005679-0
005680-0
005681-0
005682-0
005684-0
005685-0
005686-0
005687-0
005688-0
005690-0
005691-0
005692-0
005693-0
005694-0
005695-0
005696-0
005697-0
005698-0
005699-0
005700-0
005701-0
005702-0
005703-0
005704-0
005705-0
005706-0
005707-0
005708-0
005709-0
005710-0
005711-0
005712-0
005713-0
005714-0
005715-0
005716-0
005717-0
005718-0
005719-0
005721-0
005722-0
005723-0
005724-0
005725-0
005726-0
005727-0
005728-0
005730-0
005731-0
005732-0
005733-0
005734-0
005735-0
005736-0
005737-0
005738-0
005739-0
005740-0
005741-0
005742-0
005744-0
005745-0
005746-0
005747-0
005748-0
005749-0
005750-0
005752-0
005753-0
005754-0
005756-0
005757-0
005758-0
005759-0
005760-0
005761-0
005763-0
005764-0
005765-0
005766-0
005767-0
005768-0
005769-0
005770-0
005771-0
005774-0
005775-0
005776-0
005777-0
005778-0
005779-0
005780-0
005781-0
005782-0
005783-0
005784-0
005785-0
005786-0
005787-0
005788-0
005789-0
005790-0
005791-0
005792-0
005793-0
005794-0
005795-0
005796-0
005797-0
005798-2
005801-0
005802-0
005803-0
005804-0
005805-0
005806-0
005807-0
005808-0
005809-0
005810-0
005811-0
005812-0
005813-0
005814-0
005815-0
005816-0
005817-0
005818-0
005819-0
005820-0
005821-0
005822-0
005823-0
005825-0
005826-0
005827-0
005828-0
005830-0
005831-0
005832-0
005834-0
005835-0
005836-0
005837-0
005838-0
005839-0
005840-0
005841-0
005844-0
005845-0
005846-0
005847-0
005848-0
005849-0
005850-0
005851-0
005852-0
005853-0
005854-0
005856-0
005858-0
005859-0
005861-0
005862-0
005863-0
005864-0
005865-0
005866-0
005867-0
005868-0
005869-0
005870-0
005871-0
005872-0
005873-0
005874-0
005875-0
005876-0
005877-0
005878-0
005879-0
005880-0
005881-0
005883-0
005884-0
005885-0
005886-0
005887-0
005889-0
005890-0
005891-0
005892-0
005893-0
005894-0
005895-0
005896-0
005897-0
005898-0
005899-0
005900-0
005901-0
005902-0
005903-0
005904-0
005905-0
005906-0
005907-0
005910-0
005911-0
005912-0
005913-0
005914-0
005915-0
005917-0
005918-0
005919-0
005920-0
005922-0
005923-0
005924-0
005926-0
005927-0
005928-0
005929-0
005930-0
005931-0
005932-0
005933-0
005934-0
005935-0
005937-0
005939-0
005940-0
005941-0
005942-0
005943-0
005944-0
005946-0
005947-0
005948-0
005949-0
005950-0
005951-0
005952-0
005953-0
005954-0
005955-0
005956-0
005957-0
005958-0
005959-0
005960-0
005961-0
005962-0
005963-0
005964-0
005965-0
005966-0
005967-0
005968-0
005969-0
005970-0
005971-0
005973-0
005974-0
005975-0
005976-0
005977-0
005978-0
005979-0
005981-0
005983-0
005985-0
005986-0
005988-0
005989-0
005991-0
005992-0
005995-0
005996-0
005998-0
006003-0
006004-0
006005-0
006008-0
006009-0
006010-0
006011-0
006014-0
006016-0
006017-0
006018-0
006020-0
006021-0
006023-0
006025-0
006027-0
006028-0
006029-0
006030-0
006032-0
006033-0
006034-0
006035-0
006036-0
006038-0
006039-0
006041-0
006043-0
006048-0
006049-0
006051-0
006053-0
008711-0
008727-0
008734-0
008744-0
008750-0
008763-0
008772-0
008941-0
